% File represents an instance of a Composite Structure problem to be solved by a CP framework
% Created on 2025-03-25 14:05:14.208
T = 60;
n = 16;
m = 24;
edges = [(1, 2),
(5, 6),
(10, 9),
(13, 14),
(2, 3),
(7, 6),
(11, 10),
(15, 14),
(4, 3),
(7, 8),
(12, 11),
(16, 15),
(5, 1),
(5, 9),
(13, 9),
(2, 6),
(6, 10),
(10, 14),
(3, 7),
(11, 7),
(11, 15),
(4, 8),
(12, 8),
(12, 16)];
counts = [|16, 4, 20, 15,
|16, 4, 20, 14,
|16, 4, 20, 13,
|16, 4, 27, 13,
|16, 4, 20, 16,
|16, 4, 16, 13,
|16, 4, 19, 13,
|16, 4, 18, 13,
|16, 3, 15, 12,
|16, 3, 15, 13,
|16, 5, 19, 13,
|20, 5, 20, 15,
|16, 4, 15, 12,
|15, 2, 13, 7,
|16, 5, 13, 9,
|20, 5, 14, 11|];
